0 2897
1 2897
2 2833
3 2833
4 2783
5 2783
6 2664
7 2664
8 2664
9 2638
10 2638
11 2638
12 2638
13 2583
14 2583
15 2583
16 2583
17 2503
18 2503
19 2503
20 2503
21 2500
22 2500
23 2500
24 2500
25 2500
26 2500
27 2500
28 2500
29 2369
30 2369
31 2369
32 2369
33 2369
34 2369
35 2369
36 2369
37 2369
38 2369
39 2369
40 2369
41 2369
42 2369
43 2369
44 2369
45 2369
46 2369
47 2369
48 2369
49 2369
50 2369
51 2369
52 2369
53 2369
54 2355
55 2355
56 2355
57 2355
58 2355
59 2355
60 2355
61 2355
62 2355
63 2355
64 2305
65 2305
66 2305
67 2305
68 2305
69 2305
70 2305
71 2305
72 2305
73 2305
74 2305
75 2305
76 2305
77 2305
78 2305
79 2305
80 2305
81 2305
82 2305
83 2262
84 2262
85 2262
86 2262
87 2262
88 2262
89 2262
90 2262
91 2262
92 2262
93 2262
94 2262
95 2262
96 2262
97 2262
98 2262
99 2262
100 2262
101 2262
102 2262
103 2262
104 2262
105 2262
106 2262
107 2262
108 2262
109 2262
110 2262
111 2262
112 2262
113 2262
114 2257
115 2257
116 2257
117 2257
118 2257
119 2257
120 2257
121 2257
122 2257
123 2257
124 2257
125 2257
126 2233
127 2233
128 2233
129 2233
130 2205
131 2205
132 2205
133 2205
134 2205
135 2205
136 2187
137 2187
138 2187
139 2187
140 2173
141 2173
142 2173
143 2173
144 2173
145 2173
146 2173
147 2173
148 2173
149 2173
150 2173
151 2173
152 2173
153 2173
154 2173
155 2173
156 2120
157 2120
158 2120
159 2120
160 2120
161 2120
162 2112
163 2112
164 2112
165 2112
166 2112
167 2112
168 2112
169 2112
170 2112
171 2112
172 2112
173 2112
174 2112
175 2112
176 2112
177 2112
178 2106
179 2106
180 2106
181 2106
182 2106
183 2106
184 2106
185 2106
186 2106
187 2101
188 2101
189 2101
190 2098
191 2098
192 2098
193 2098
194 2098
195 2098
196 2098
197 2098
198 2098
199 2098
200 2098
201 2098
202 2098
203 2098
204 2098
205 2094
206 2083
207 2083
208 2083
209 2083
210 2083
211 2083
212 2083
213 2083
214 2083
215 2083
216 2083
217 2083
218 2083
219 2083
220 2083
221 2083
222 2083
223 2083
224 2083
225 2083
226 2083
227 2083
228 2083
229 2083
230 2083
231 2083
232 2083
233 2083
234 2080
235 2080
236 2080
237 2046
238 2046
239 2046
240 2046
241 2046
242 2046
243 2046
244 2046
245 2046
246 2046
247 2046
248 2046
249 2046
250 2046
251 2046
252 2046
253 2046
254 2046
255 2046
256 2046
257 2046
258 2046
259 2046
260 2046
261 2046
262 2046
263 2046
264 2046
265 2046
266 2046
267 2045
268 2045
269 2045
270 2045
271 2045
272 2045
273 2045
274 2045
275 2044
276 2044
277 2044
278 2026
279 2026
280 2026
281 2026
282 2026
283 2026
284 2026
285 2026
286 2026
287 2026
288 2026
289 2026
290 2012
291 2012
292 2012
293 2012
294 2012
295 2012
296 2012
297 2012
298 2012
299 2012
300 2012
301 2012
302 2012
303 2011
304 2011
305 2011
306 2011
307 2011
308 2011
309 2011
310 2011
311 2011
312 2011
313 2011
314 2011
315 2011
316 2011
317 2011
318 2011
319 2011
320 2011
321 2011
322 2011
323 2011
324 2011
325 2011
326 2011
327 2011
328 2011
329 2011
330 2011
331 2011
332 2011
333 2011
334 2011
335 2011
336 2011
337 2011
338 2011
339 2011
340 2011
341 2011
342 2010
343 1987
344 1987
345 1987
346 1987
347 1987
348 1987
349 1987
350 1987
351 1987
352 1987
353 1987
354 1987
355 1987
356 1987
357 1987
358 1987
359 1987
360 1968
361 1968
362 1968
363 1968
364 1968
365 1968
366 1968
367 1968
368 1968
369 1968
370 1968
371 1968
372 1968
373 1968
374 1968
375 1968
376 1968
377 1968
378 1968
379 1968
380 1968
381 1968
382 1968
383 1968
384 1968
385 1968
386 1968
387 1968
388 1968
389 1968
390 1968
391 1968
392 1968
393 1968
394 1968
395 1951
396 1951
397 1951
398 1951
399 1951
400 1951
401 1951
402 1951
403 1951
404 1951
405 1951
406 1951
407 1951
408 1951
409 1951
410 1951
411 1951
412 1951
413 1951
414 1951
415 1951
416 1951
417 1951
418 1951
419 1951
420 1951
421 1951
422 1951
423 1951
424 1951
425 1951
426 1951
427 1951
428 1935
429 1935
430 1935
431 1935
432 1935
433 1935
434 1935
435 1935
436 1935
437 1935
438 1935
439 1935
440 1935
441 1935
442 1935
443 1935
444 1935
445 1935
446 1935
447 1935
448 1935
449 1935
450 1935
451 1935
452 1935
453 1935
454 1935
455 1935
456 1935
457 1935
458 1935
459 1935
460 1935
461 1935
462 1935
463 1935
464 1935
465 1935
466 1935
467 1935
468 1935
469 1935
470 1935
471 1935
472 1935
473 1935
474 1935
475 1935
476 1935
477 1935
478 1935
479 1935
480 1935
481 1935
482 1935
483 1935
484 1935
485 1935
486 1935
487 1935
488 1935
489 1935
490 1935
491 1935
492 1933
493 1933
494 1933
495 1933
496 1933
497 1933
498 1933
499 1933
500 1917
501 1917
502 1917
503 1917
504 1917
505 1917
506 1917
507 1917
508 1917
509 1917
510 1917
511 1917
512 1917
513 1917
514 1917
515 1917
516 1917
517 1917
518 1917
519 1917
520 1917
521 1917
522 1917
523 1917
524 1917
525 1917
526 1917
527 1911
528 1911
529 1911
530 1911
531 1911
532 1911
533 1911
534 1911
535 1911
536 1911
537 1911
538 1911
539 1911
540 1904
541 1904
542 1904
543 1904
544 1904
545 1904
546 1904
547 1904
548 1904
549 1904
550 1904
551 1904
552 1904
553 1904
554 1904
555 1904
556 1904
557 1904
558 1904
559 1904
560 1904
561 1904
562 1904
563 1904
564 1904
565 1904
566 1904
567 1904
568 1904
569 1896
570 1896
571 1896
572 1896
573 1896
574 1896
575 1896
576 1896
577 1896
578 1896
579 1896
580 1896
581 1896
582 1896
583 1896
584 1896
585 1896
586 1896
587 1896
588 1896
589 1896
590 1896
591 1896
592 1896
593 1896
594 1896
595 1882
596 1882
597 1882
598 1882
599 1882
600 1882
601 1882
602 1882
603 1882
604 1882
605 1882
606 1882
607 1882
608 1882
609 1882
610 1882
611 1882
612 1882
613 1882
614 1882
615 1882
616 1882
617 1882
618 1882
619 1882
620 1882
621 1882
622 1882
623 1882
624 1882
625 1882
626 1872
627 1872
628 1872
629 1872
630 1872
631 1872
632 1872
633 1872
634 1872
635 1872
636 1872
637 1872
638 1872
639 1872
640 1872
641 1872
642 1872
643 1872
644 1872
645 1872
646 1872
647 1872
648 1872
649 1872
650 1872
651 1872
652 1872
653 1872
654 1872
655 1872
656 1872
657 1872
658 1862
659 1862
660 1862
661 1862
662 1862
663 1862
664 1862
665 1862
666 1862
667 1862
668 1862
669 1862
670 1862
671 1862
672 1862
673 1862
674 1862
675 1862
676 1862
677 1862
678 1862
679 1862
680 1862
681 1862
682 1862
683 1862
684 1862
685 1862
686 1862
687 1862
688 1862
689 1862
690 1862
691 1862
692 1862
693 1862
694 1862
695 1862
696 1862
697 1862
698 1862
699 1862
700 1862
701 1862
702 1860
703 1860
704 1860
705 1860
706 1860
707 1860
708 1860
709 1860
710 1860
711 1860
712 1860
713 1860
714 1860
715 1860
716 1860
717 1860
718 1860
719 1860
720 1860
721 1860
722 1860
723 1860
724 1860
725 1860
726 1860
727 1860
728 1860
729 1860
730 1860
731 1860
732 1860
733 1860
734 1860
735 1860
736 1860
737 1860
738 1860
739 1860
740 1860
741 1860
742 1860
743 1855
744 1855
745 1855
746 1855
747 1855
748 1855
749 1855
750 1855
751 1855
752 1855
753 1855
754 1855
755 1855
756 1855
757 1855
758 1855
759 1855
760 1855
761 1855
762 1855
763 1855
764 1855
765 1855
766 1855
767 1855
768 1855
769 1855
770 1855
771 1855
772 1855
773 1855
774 1855
775 1855
776 1855
777 1855
778 1855
779 1855
780 1855
781 1855
782 1855
783 1855
784 1855
785 1855
786 1855
787 1855
788 1855
789 1855
790 1855
791 1855
792 1855
793 1855
794 1855
795 1855
796 1855
797 1855
798 1855
799 1855
800 1855
801 1855
802 1855
803 1855
804 1855
805 1855
806 1855
807 1855
808 1855
809 1855
810 1855
811 1855
812 1855
813 1855
814 1855
815 1855
816 1855
817 1855
818 1855
819 1855
820 1855
821 1855
822 1855
823 1855
824 1855
825 1855
826 1855
827 1855
828 1855
829 1855
830 1855
831 1855
832 1855
833 1855
834 1855
835 1855
836 1855
837 1855
838 1855
839 1855
840 1855
841 1855
842 1855
843 1855
844 1855
845 1855
846 1855
847 1855
848 1855
849 1855
850 1855
851 1855
852 1855
853 1855
854 1855
855 1855
856 1855
857 1855
858 1853
859 1853
860 1853
861 1853
862 1853
863 1853
864 1853
865 1853
866 1853
867 1853
868 1853
869 1853
870 1853
871 1853
872 1853
873 1853
874 1853
875 1853
876 1853
877 1853
878 1853
879 1853
880 1853
881 1853
882 1853
883 1853
884 1853
885 1853
886 1853
887 1853
888 1853
889 1853
890 1853
891 1853
892 1853
893 1853
894 1853
895 1853
896 1853
897 1853
898 1853
899 1853
900 1853
901 1853
902 1853
903 1853
904 1853
905 1853
906 1853
907 1853
908 1853
909 1853
910 1853
911 1853
912 1853
913 1853
914 1853
915 1853
916 1853
917 1853
918 1853
919 1853
920 1853
921 1853
922 1853
923 1853
924 1853
925 1853
926 1853
927 1853
928 1853
929 1853
930 1853
931 1853
932 1853
933 1853
934 1853
935 1853
936 1853
937 1853
938 1853
939 1853
940 1853
941 1853
942 1853
943 1853
944 1853
945 1853
946 1853
947 1853
948 1853
949 1853
950 1853
951 1853
952 1853
953 1853
954 1853
955 1853
956 1853
957 1853
958 1853
959 1853
960 1853
961 1853
962 1853
963 1853
964 1853
965 1853
966 1853
967 1853
968 1853
969 1853
970 1853
971 1853
972 1853
973 1853
974 1853
975 1853
976 1853
977 1853
978 1853
979 1853
980 1853
981 1853
982 1853
983 1853
984 1853
985 1853
986 1853
987 1853
988 1853
989 1853
990 1853
991 1853
992 1853
993 1853
994 1853
995 1853
996 1853
997 1853
998 1853
999 1853
Best: [[28,25,15,14,22,32,20,18],
       [21,30,23,10,19,29,8,2,13,17,31],
       [27,7,4,3,24,5,12,9,16,11,26,6]], fitness: 1853
